Version identifier: 22.1.0.0 | 2022-03-09 | 1a383f8ce
CPXPARAM_Threads                                 1
CPXPARAM_MIP_Strategy_VariableSelect             3
CPXPARAM_TimeLimit                               598.58948438599998
1 of 1 MIP starts provided solutions.
MIP start 'm1' defined initial solution with objective 187.0000.
Tried aggregator 1 time.
MIP Presolve eliminated 9 rows and 0 columns.
MIP Presolve modified 4 coefficients.
Reduced MIP has 1415 rows, 4800 columns, and 66253 nonzeros.
Reduced MIP has 4800 binaries, 0 generals, 0 SOSs, and 0 indicators.
Presolve time = 0.04 sec. (36.08 ticks)
Probing time = 0.00 sec. (5.88 ticks)
Tried aggregator 1 time.
Detecting symmetries...
Reduced MIP has 1415 rows, 4800 columns, and 66253 nonzeros.
Reduced MIP has 4800 binaries, 0 generals, 0 SOSs, and 0 indicators.
Presolve time = 0.05 sec. (38.65 ticks)
Probing time = 0.00 sec. (5.88 ticks)
Clique table members: 795.
MIP emphasis: balance optimality and feasibility.
MIP search method: dynamic search.
Parallel mode: none, using 1 thread.
Root relaxation solution time = 0.73 sec. (815.95 ticks)

        Nodes                                         Cuts/
   Node  Left     Objective  IInf  Best Integer    Best Bound    ItCnt     Gap

*     0+    0                          187.0000     4800.0000              --- 
      0     0      200.0000   837      187.0000      200.0000     3575    6.95%
      0     0      200.0000   428      187.0000      Cuts: 14     5151    6.95%
      0     0      200.0000   594      187.0000       Cuts: 4     6688    6.95%
      0     0      200.0000   689      187.0000      Cuts: 59    11065    6.95%
Detecting symmetries...
      0     2      200.0000   274      187.0000      200.0000    11065    6.95%
Elapsed time = 38.25 sec. (42322.06 ticks, tree = 0.01 MB, solutions = 1)
      1     1        cutoff            187.0000      200.0000    13558    6.95%
      2     2      200.0000   413      187.0000      200.0000    16670    6.95%
      3     2      200.0000   493      187.0000      200.0000    20503    6.95%
      4     3      200.0000   396      187.0000      200.0000    20628    6.95%
      5     4      200.0000   374      187.0000      200.0000    23773    6.95%
      6     5      200.0000   509      187.0000      200.0000    33794    6.95%
      7     6      200.0000   377      187.0000      200.0000    33835    6.95%
      8     7      200.0000   331      187.0000      200.0000    41302    6.95%
      9     8      199.9287   588      187.0000      200.0000    51428    6.95%
     10     9      200.0000   334      187.0000      200.0000    51513    6.95%
Elapsed time = 50.91 sec. (56591.00 ticks, tree = 0.03 MB, solutions = 1)
     12    11      200.0000   343      187.0000      200.0000    59541    6.95%
     13    12      199.9857   634      187.0000      200.0000    78229    6.95%
     15    14      199.8441   408      187.0000      200.0000    87571    6.95%
     17    16      199.8701   421      187.0000      200.0000   100128    6.95%
     19    18      200.0000   352      187.0000      200.0000   103716    6.95%
     21    20      200.0000   393      187.0000      200.0000   108094    6.95%
     22    21      199.9710   551      187.0000      200.0000   116552    6.95%
     24    23      200.0000   378      187.0000      200.0000   118665    6.95%
     25    24      199.9129   623      187.0000      200.0000   127247    6.95%
     26    25      199.9275   615      187.0000      200.0000   136113    6.95%
Elapsed time = 72.44 sec. (79657.15 ticks, tree = 0.14 MB, solutions = 1)
     27    26      200.0000   399      187.0000      200.0000   141587    6.95%
     29    28      199.8694   629      187.0000      200.0000   148680    6.95%
     30    29      200.0000   387      187.0000      200.0000   153541    6.95%
     31    30      200.0000   313      187.0000      200.0000   160658    6.95%
     32    31      200.0000   340      187.0000      200.0000   166931    6.95%
     33    32      199.9275   597      187.0000      200.0000   177082    6.95%
     35    34      200.0000   303      187.0000      200.0000   180329    6.95%
     36    34      200.0000   325      187.0000      200.0000   184180    6.95%
     38    36      199.8984   546      187.0000      200.0000   192461    6.95%
     39    37      200.0000   400      187.0000      200.0000   196041    6.95%
Elapsed time = 89.32 sec. (97518.80 ticks, tree = 0.19 MB, solutions = 1)
     40    38      200.0000   390      187.0000      200.0000   199300    6.95%
     41    39      200.0000   357      187.0000      200.0000   214198    6.95%
     42    40      200.0000   416      187.0000      200.0000   237302    6.95%
     44    42      200.0000   407      187.0000      200.0000   242595    6.95%
     45    43      200.0000   380      187.0000      200.0000   247842    6.95%
     47    45      200.0000   542      187.0000      200.0000   251445    6.95%
     49    47      199.9420   597      187.0000      200.0000   256238    6.95%
     50    48      200.0000   422      187.0000      200.0000   256608    6.95%
     54    50      200.0000   421      187.0000      200.0000   258419    6.95%
     57    51    infeasible            187.0000      200.0000   262288    6.95%
Elapsed time = 108.54 sec. (117567.58 ticks, tree = 0.38 MB, solutions = 1)
     60    54      200.0000   323      187.0000      200.0000   264841    6.95%
     63    57      200.0000   299      187.0000      200.0000   272550    6.95%
     66    59      200.0000   448      187.0000      200.0000   280141    6.95%
     68    61      200.0000   282      187.0000      200.0000   284345    6.95%
     71    64      200.0000   290      187.0000      200.0000   290772    6.95%
     75    66      200.0000   238      187.0000      200.0000   294471    6.95%
     77    68      200.0000   239      187.0000      200.0000   300666    6.95%
     80    71      200.0000   260      187.0000      200.0000   309873    6.95%
     83    73      200.0000   238      187.0000      200.0000   314950    6.95%
     85    75      200.0000   237      187.0000      200.0000   321303    6.95%
Elapsed time = 119.91 sec. (129774.82 ticks, tree = 0.68 MB, solutions = 1)
     88    78      200.0000   273      187.0000      200.0000   330013    6.95%
     91    81      200.0000   216      187.0000      200.0000   344551    6.95%
     93    83      200.0000   304      187.0000      200.0000   353700    6.95%
     95    84      199.7269   408      187.0000      200.0000   365203    6.95%
     98    87      200.0000   232      187.0000      200.0000   372113    6.95%
    100    89      199.8902   456      187.0000      200.0000   380952    6.95%
    102    91      199.6586   278      187.0000      200.0000   388629    6.95%
    105    94      200.0000   294      187.0000      200.0000   394623    6.95%
    107    96      200.0000   216      187.0000      200.0000   400235    6.95%
    109    98      200.0000   198      187.0000      200.0000   406575    6.95%
Elapsed time = 132.42 sec. (142491.03 ticks, tree = 0.98 MB, solutions = 1)
    111    99      199.7451   372      187.0000      200.0000   412821    6.95%
    114   101      200.0000   186      187.0000      200.0000   420142    6.95%
    117   104      200.0000   203      187.0000      200.0000   428739    6.95%
    120   107      199.9805   392      187.0000      200.0000   440609    6.95%
    122   109      199.7665   344      187.0000      200.0000   447369    6.95%
    126   112      200.0000   175      187.0000      200.0000   454889    6.95%
    128   112      199.7897   352      187.0000      200.0000   462777    6.95%
    131   114      199.8820   357      187.0000      200.0000   471573    6.95%
    133   116      199.8490   396      187.0000      200.0000   479963    6.95%
    136   118      199.9315   367      187.0000      200.0000   487096    6.95%
Elapsed time = 145.10 sec. (155012.27 ticks, tree = 1.23 MB, solutions = 1)
    140   122      199.9277   349      187.0000      200.0000   490925    6.95%
    144   125      198.9375   324      187.0000      200.0000   494754    6.95%
    149   130      199.0000   309      187.0000      200.0000   498574    6.95%
    153   133      199.0000   274      187.0000      200.0000   503548    6.95%
    157   137      199.9086   319      187.0000      200.0000   506797    6.95%
    160   138      199.9086   322      187.0000      200.0000   508227    6.95%
    166   142      198.9375   247      187.0000      200.0000   512319    6.95%
    170   145      198.9375   264      187.0000      200.0000   519854    6.95%
    176   149      198.9375   239      187.0000      200.0000   522607    6.95%
    180   152      198.0000   207      187.0000      200.0000   526658    6.95%
Elapsed time = 156.19 sec. (166159.47 ticks, tree = 1.69 MB, solutions = 1)
    184   154      198.0000   194      187.0000      200.0000   532970    6.95%
    189   156      198.0000   138      187.0000      200.0000   538309    6.95%
    193   156      198.0000   155      187.0000      200.0000   547083    6.95%
    198   155    infeasible            187.0000      200.0000   555850    6.95%
    203   159      198.0000   226      187.0000      200.0000   558144    6.95%
    209   162      198.0000   186      187.0000      200.0000   564338    6.95%
    213   162      200.0000   315      187.0000      200.0000   576592    6.95%
    217   164      200.0000   314      187.0000      200.0000   582655    6.95%
    222   169      200.0000   252      187.0000      200.0000   586978    6.95%
    225   172      199.9105   325      187.0000      200.0000   594840    6.95%
Elapsed time = 168.39 sec. (177925.41 ticks, tree = 1.93 MB, solutions = 1)
    229   176      200.0000   250      187.0000      200.0000   600612    6.95%
    231   178      199.9627   345      187.0000      200.0000   611401    6.95%
    235   182      200.0000   176      187.0000      200.0000   617988    6.95%
    238   185      199.8073   388      187.0000      200.0000   628173    6.95%
    240   187      200.0000   240      187.0000      200.0000   634166    6.95%
    243   190      199.8584   303      187.0000      200.0000   643402    6.95%
    247   194      199.0000   300      187.0000      200.0000   648387    6.95%
    253   198      199.0000   259      187.0000      200.0000   650620    6.95%
    258   201      199.0000   394      187.0000      200.0000   652953    6.95%
    276   212      199.9711   351      187.0000      200.0000   669821    6.95%
Elapsed time = 184.51 sec. (193640.34 ticks, tree = 2.48 MB, solutions = 1)
    288   224      199.0000   302      187.0000      200.0000   677739    6.95%
    305   238      198.9375   229      187.0000      200.0000   697518    6.95%
    320   249      198.9375   223      187.0000      200.0000   721187    6.95%
    337   265      198.7642   228      187.0000      200.0000   748331    6.95%
    360   285      197.5357   210      187.0000      200.0000   771384    6.95%
    390   309      194.3750   153      187.0000      200.0000   791444    6.95%
    419   321      200.0000   342      187.0000      200.0000   814342    6.95%
    433   335      199.8220   280      187.0000      200.0000   835141    6.95%
    456   358      199.8033   324      187.0000      200.0000   843805    6.95%
    477   378      199.7976   338      187.0000      200.0000   853100    6.95%
Elapsed time = 227.52 sec. (234455.38 ticks, tree = 4.66 MB, solutions = 1)
*   479+  376                          188.0000      200.0000             6.38%
*   479+  374                          189.0000      200.0000             5.82%
*   479+  372                          190.0000      200.0000             5.26%
    480   374      200.0000   256      190.0000      200.0000   858336    5.26%
    482   376      200.0000   174      190.0000      200.0000   864332    5.26%
    483   377      199.9194   373      190.0000      200.0000   869888    5.26%
    497   391      199.8293   325      190.0000      200.0000   884368    5.26%
    519   410      199.8293   367      190.0000      200.0000   891580    5.26%
    543   430      199.7694   399      190.0000      200.0000   897858    5.26%
    571   456      199.7447   395      190.0000      200.0000   901532    5.26%

Performing restart 1

Repeating presolve.
Tried aggregator 1 time.
MIP Presolve eliminated 0 rows and 1 columns.
Reduced MIP has 1415 rows, 4799 columns, and 66230 nonzeros.
Reduced MIP has 4799 binaries, 0 generals, 0 SOSs, and 0 indicators.
Presolve time = 0.04 sec. (33.60 ticks)
Tried aggregator 1 time.
Reduced MIP has 1415 rows, 4799 columns, and 66230 nonzeros.
Reduced MIP has 4799 binaries, 0 generals, 0 SOSs, and 0 indicators.
Presolve time = 0.05 sec. (39.61 ticks)
Represolve time = 0.29 sec. (230.32 ticks)
    589     0      200.0000   532      190.0000      Cuts: 19   920374    5.26%
    589     0      200.0000   359      190.0000      Cuts: 11   927326    5.26%
    589     0      200.0000   768      190.0000      Cuts: 34   934028    5.26%
    589     0      200.0000   345      190.0000      Cuts: 25   943323    5.26%
    589     0      200.0000   832      190.0000      Cuts: 67   956527    5.26%
    589     0      200.0000   809      190.0000      Cuts: 27   967790    5.26%
    589     0      200.0000   534      190.0000      Cuts: 23   972259    5.26%
    589     0      200.0000   577      190.0000      Cuts: 44   977842    5.26%
    589     0      200.0000   811      190.0000      Cuts: 17   986061    5.26%
    589     2      200.0000   356      190.0000      200.0000   986061    5.26%
    593     4      200.0000   728      190.0000      200.0000   995484    5.26%
    597     8      200.0000   563      190.0000      200.0000  1013885    5.26%
Elapsed time = 429.53 sec. (449824.37 ticks, tree = 0.03 MB, solutions = 4)
    601    12      200.0000   505      190.0000      200.0000  1034024    5.26%
    609    20      199.8270   598      190.0000      200.0000  1045156    5.26%
    617    28      199.9135   583      190.0000      200.0000  1056721    5.26%
    621    32      200.0000   490      190.0000      200.0000  1074082    5.26%
    627    38      200.0000   457      190.0000      200.0000  1088696    5.26%
    631    40      200.0000   585      190.0000      200.0000  1096186    5.26%
    637    44      200.0000   482      190.0000      200.0000  1107756    5.26%
    640    44    infeasible            190.0000      200.0000  1130153    5.26%
    644    46      200.0000   392      190.0000      200.0000  1148192    5.26%
    649    47    infeasible            190.0000      200.0000  1167280    5.26%
Elapsed time = 473.36 sec. (497642.07 ticks, tree = 0.11 MB, solutions = 4)
    652    49      200.0000   317      190.0000      200.0000  1181426    5.26%
    658    53      200.0000   277      190.0000      200.0000  1206662    5.26%
    664    59      200.0000   314      190.0000      200.0000  1226828    5.26%
    668    63      200.0000   438      190.0000      200.0000  1251071    5.26%
    673    66    infeasible            190.0000      200.0000  1269555    5.26%
    681    72      200.0000   154      190.0000      200.0000  1285012    5.26%
    687    70    infeasible            190.0000      200.0000  1303998    5.26%
    691    66    infeasible            190.0000      200.0000  1338872    5.26%
    698    59    infeasible            190.0000      200.0000  1367993    5.26%
    704    55      200.0000   408      190.0000      200.0000  1396468    5.26%
Elapsed time = 513.57 sec. (539831.71 ticks, tree = 0.12 MB, solutions = 4)
    710    61      200.0000   393      190.0000      200.0000  1400530    5.26%
    725    74      200.0000   375      190.0000      200.0000  1409503    5.26%
    740    89      200.0000   361      190.0000      200.0000  1414047    5.26%
    754   103      200.0000   360      190.0000      200.0000  1424735    5.26%
    769   118      200.0000   361      190.0000      200.0000  1431892    5.26%
    784   133      200.0000   348      190.0000      200.0000  1439326    5.26%
Starting limited solution polishing.
    789   138      200.0000   345      190.0000      200.0000  1441926    5.26%
    803   150      200.0000   349      190.0000      200.0000  1454705    5.26%
    811   158      200.0000   297      190.0000      200.0000  1466001    5.26%
    824   171      200.0000   354      190.0000      200.0000  1475942    5.26%
Elapsed time = 551.81 sec. (579500.97 ticks, tree = 0.36 MB, solutions = 4)
    838   185      200.0000   350      190.0000      200.0000  1481460    5.26%
    849   196      200.0000   343      190.0000      200.0000  1491919    5.26%
    862   209      200.0000   343      190.0000      200.0000  1504600    5.26%
    869   216      200.0000   338      190.0000      200.0000  1516998    5.26%
    883   228      200.0000   290      190.0000      200.0000  1532556    5.26%
    893   238      200.0000   308      190.0000      200.0000  1540826    5.26%
    907   252      200.0000   290      190.0000      200.0000  1553590    5.26%
    921   266      200.0000   283      190.0000      200.0000  1564808    5.26%
    933   276    infeasible            190.0000      200.0000  1582342    5.26%
    945   288      200.0000   269      190.0000      200.0000  1595142    5.26%
Elapsed time = 594.15 sec. (622646.36 ticks, tree = 0.60 MB, solutions = 4)
    953   294      200.0000   238      190.0000      200.0000  1617093    5.26%

Clique cuts applied:  13
Zero-half cuts applied:  44
Gomory fractional cuts applied:  3

Root node processing (before b&c):
  Real time             =   38.19 sec. (42249.51 ticks)
Sequential b&c:
  Real time             =  560.40 sec. (585003.37 ticks)
                          ------------
Total (root+branch&cut) =  598.59 sec. (627252.87 ticks)
Primal:	190
Dual:	200
Status:	Feasible
Time:	598.55
Sequence:
	20
	7
	15
	10
	15
	6
	16
	6
	17
	5
	17
	6
	16
	6
	18
	4
	14
	8
	17
	2
	19
	7
	16
	6
	17
	4
	18
	8
	16
	6
	17
	5
	17
	8
	16
	6
	17
	3
	19
	8
	16
	6
	18
	4
	17
	6
	16
	8
	19
	3
	17
	6
	15
	8
	16
	7
	17
	2
	17
	8
	16
	6
	18
	4
	17
	8
	14
	10
	15
	6
	20
	1
	17
	12
	14
	6
	17
	2
	19
	9
	16
	6
	14
	10
	19
	0
	22
	6
	14
	8
	20
	0
	17
	12
	14
	8
	20
	0
	19
	10
	14
	8
	18
	4
	17
	6
	16
	9
	19
	2
	17
	6
	15
	5
	17
	6
	14
	8
	14
	6
	17
	5
	17
	6
	14
	12
	9
	14
	10
	6
	14
	13
	14
	8
	10
	14
	9
	10
	14
	8
	14
	3
	6
	14
	8
	14
	11
	14
	8
	15
	10
	7
	14
	12
	8
	14
	7
	17
	4
	14
	8
	10
	14
	6
	10
	14
	8
	6
	14
	9
	6
	14
	6
	15
	11
	15
	6
	16
	6
	14
	8
	20
	1
	17
	6
	15
	10
	14
	7
	22
